1636823
36 15 14151
15 8 6874
8 68 34471
68 35 19070
35 51 8926
51 39 11004
39 62 8740
62 37 30446
37 53 6554
53 50 48925
50 28 10810
28 44 76431
44 10 75759
10 18 28652
18 57 27906
57 33 88918
33 52 101509
52 14 39276
14 22 67712
22 31 39447
31 21 77515
21 38 42598
38 7 28523
7 43 52950
43 46 69394
46 34 36286
34 55 20835
55 26 61621
26 66 57991
66 11 13370
11 67 45840
67 64 14572
64 6 32039
6 41 10602
41 30 5056
30 25 1249
25 29 9940
29 60 6419
60 23 7498
23 49 4353
49 19 8895
19 5 15574
5 40 3130
40 56 3489
56 32 1427
32 1 13128
1 12 10465
12 42 4831
42 3 13084
3 61 12947
61 24 5437
24 47 15612
47 54 18520
54 13 13536
13 65 18316
65 45 16726
45 27 8214
27 17 1445
17 58 6718
58 9 1777
9 2 17744
2 48 7938
48 20 9225
20 4 4440
4 63 25841
63 16 14689
16 59 10880
59 36 8563
